300
[60,63,64,65,66,67,72,73,74,76,77,78,79,80,81,82,83,84,85,86,87,88,89,90,91,92,94,95,99,100,102,105,106,107,108,109,110,111,113,114,115,116,117,118,119,120,121,122,123,124,126,128,129,131,132,133,134,135,136,137,138,140,141,142,143,144,145,146,147,148,149,150,152,153,154,155,156,157,159,161,163,166,167,168,169,170,171,172,173,174,175,176,177,179,181,183,184,185,187,188,189,190,193,194,195,196,197,199,200,201,202,203,205,207,208,209,211,212,213,214,215,216,220,221,223,224,225,226,227,228,229,230,231,232,235,238,239,240]
[2,2,3,1,2,1,2,2,3,3,3,2,2,1,2,1,2,1,3,2,1,2,1,2,3,2,2,1,5,1,2,6,1,1,3,1,3,4,1,2,2,4,1,1,2,1,1,2,1,2,1,1,2,1,2,2,3,4,1,2,1,2,2,3,1,2,1,3,2,4,3,1,1,1,2,3,7,1,4,2,2,4,2,1,2,1,1,1,1,4,2,4,2,1,4,3,2,2,2,2,2,2,2,2,2,4,2,2,4,1,3,3,3,1,1,2,3,1,2,1,1,4,2,5,3,2,4,3,1,1,2,3,3,2,3,4,2,3]
